
  22   10
  10   10   10   10   10   10   10   10   10   10

   0   0   0   0   0   0   0   0   0   0   0   1 2 
   9   0   0   0   0  10   0   0   0   0   0   2 14 3 
   4   0   0   0   0  10   0   0   0   0   0   1 4 
   9   0   0  10   0   0   0   0   0   0   0   1 5 
   4  10   0   0   0   0   0   0   0   0   0   1 6 
   7   0   0  10   0   0   0   0   0   0   0   1 7 
   2   0   0   0   0  10   0   0   0   0   0   1 8 
   5  10   0   0   0   0   0   0   0   0   0   1 9 
  10   0   0   0   0   0   0   0  10   0   0   1 10 
  10   0   0  10   0   0   0   0   0   0   0   1 11 
   1  10   0   0   0   0   0   0   0   0   0   1 12 
   9   0   0   0   0   0   0   0   0   0  10   2 21 13 
   5   0   0   0  10   0   0   0   0   0   0   1 15 
  10   0   0   0   0   0   0   0   0   0  10   2 21 17 
   7   0   0   0  10   0   0   0   0   0   0   1 16 
   7   0   0   0   0   0   0   0   0  10   0   1 17 
   3   0   0   0   0   0   0   0   0  10   0   1 18 
   3   0   0   0   0   0   0   0   0   0  10   1 19 
   8   0   0   0   0   0   0   0   0  10   0   1 20 
   7   0   0   0   0   0   0   0   0  10   0   1 22
   9   0  10   0   0   0   0   0   0   0   0   1 22
   0   0   0   0   0   0   0   0   0   0   0   0 
